p cnf 49 301
1 2 3 4 5 6 7 8 15 22 29 36 43 0
2 1 3 4 5 6 7 9 16 23 30 37 44 0
3 2 1 4 5 6 7 10 0
4 3 2 1 5 6 7 11 18 25 32 39 46 0
5 4 3 2 1 6 7 12 19 26 33 0
6 5 4 3 2 1 7 13 20 27 34 41 48 0
7 6 5 4 3 2 1 14 21 28 35 42 49 0
8 9 10 11 12 13 14 15 22 29 36 43 1 0
9 8 10 11 12 13 14 16 23 30 37 44 2 0
10 9 8 11 12 13 14 3 0
11 10 9 8 12 13 14 18 25 32 39 46 4 0
12 11 10 9 8 13 14 19 26 33 5 0
13 12 11 10 9 8 14 20 27 34 41 48 6 0
14 13 12 11 10 9 8 21 28 35 42 49 7 0
15 16 22 29 36 43 8 1 0
16 15 23 30 37 44 9 2 0
18 19 20 21 25 32 39 46 11 4 0
19 18 20 21 26 33 12 5 0
20 19 18 21 27 34 41 48 13 6 0
21 20 19 18 28 35 42 49 14 7 0
22 23 24 25 26 27 28 29 36 43 15 8 1 0
23 22 24 25 26 27 28 30 37 44 16 9 2 0
24 23 22 25 26 27 28 31 38 45 0
25 24 23 22 26 27 28 32 39 46 18 11 4 0
26 25 24 23 22 27 28 33 19 12 5 0
27 26 25 24 23 22 28 34 41 48 20 13 6 0
28 27 26 25 24 23 22 35 42 49 21 14 7 0
29 30 31 32 33 34 35 36 43 22 15 8 1 0
30 29 31 32 33 34 35 37 44 23 16 9 2 0
31 30 29 32 33 34 35 38 45 24 0
32 31 30 29 33 34 35 39 46 25 18 11 4 0
33 32 31 30 29 34 35 26 19 12 5 0
34 33 32 31 30 29 35 41 48 27 20 13 6 0
35 34 33 32 31 30 29 42 49 28 21 14 7 0
36 37 38 39 43 29 22 15 8 1 0
37 36 38 39 44 30 23 16 9 2 0
38 37 36 39 45 31 24 0
39 38 37 36 46 32 25 18 11 4 0
41 42 48 34 27 20 13 6 0
42 41 49 35 28 21 14 7 0
43 44 45 46 47 48 49 36 29 22 15 8 1 0
44 43 45 46 47 48 49 37 30 23 16 9 2 0
45 44 43 46 47 48 49 38 31 24 0
46 45 44 43 47 48 49 39 32 25 18 11 4 0
47 46 45 44 43 48 49 0
48 47 46 45 44 43 49 41 34 27 20 13 6 0
49 48 47 46 45 44 43 42 35 28 21 14 7 0
-1 -2 0
-1 -3 0
-1 -4 0
-1 -5 0
-1 -6 0
-1 -7 0
-1 -8 0
-1 -15 0
-1 -22 0
-1 -29 0
-1 -36 0
-1 -43 0
-2 -3 0
-2 -4 0
-2 -5 0
-2 -6 0
-2 -7 0
-2 -9 0
-2 -16 0
-2 -23 0
-2 -30 0
-2 -37 0
-2 -44 0
-3 -4 0
-3 -5 0
-3 -6 0
-3 -7 0
-3 -10 0
-4 -5 0
-4 -6 0
-4 -7 0
-4 -11 0
-4 -18 0
-4 -25 0
-4 -32 0
-4 -39 0
-4 -46 0
-5 -6 0
-5 -7 0
-5 -12 0
-5 -19 0
-5 -26 0
-5 -33 0
-6 -7 0
-6 -13 0
-6 -20 0
-6 -27 0
-6 -34 0
-6 -41 0
-6 -48 0
-7 -14 0
-7 -21 0
-7 -28 0
-7 -35 0
-7 -42 0
-7 -49 0
-8 -9 0
-8 -10 0
-8 -11 0
-8 -12 0
-8 -13 0
-8 -14 0
-8 -15 0
-8 -22 0
-8 -29 0
-8 -36 0
-8 -43 0
-9 -10 0
-9 -11 0
-9 -12 0
-9 -13 0
-9 -14 0
-9 -16 0
-9 -23 0
-9 -30 0
-9 -37 0
-9 -44 0
-10 -11 0
-10 -12 0
-10 -13 0
-10 -14 0
-11 -12 0
-11 -13 0
-11 -14 0
-11 -18 0
-11 -25 0
-11 -32 0
-11 -39 0
-11 -46 0
-12 -13 0
-12 -14 0
-12 -19 0
-12 -26 0
-12 -33 0
-13 -14 0
-13 -20 0
-13 -27 0
-13 -34 0
-13 -41 0
-13 -48 0
-14 -21 0
-14 -28 0
-14 -35 0
-14 -42 0
-14 -49 0
-15 -16 0
-15 -22 0
-15 -29 0
-15 -36 0
-15 -43 0
-16 -23 0
-16 -30 0
-16 -37 0
-16 -44 0
-18 -19 0
-18 -20 0
-18 -21 0
-18 -25 0
-18 -32 0
-18 -39 0
-18 -46 0
-19 -20 0
-19 -21 0
-19 -26 0
-19 -33 0
-20 -21 0
-20 -27 0
-20 -34 0
-20 -41 0
-20 -48 0
-21 -28 0
-21 -35 0
-21 -42 0
-21 -49 0
-22 -23 0
-22 -24 0
-22 -25 0
-22 -26 0
-22 -27 0
-22 -28 0
-22 -29 0
-22 -36 0
-22 -43 0
-23 -24 0
-23 -25 0
-23 -26 0
-23 -27 0
-23 -28 0
-23 -30 0
-23 -37 0
-23 -44 0
-24 -25 0
-24 -26 0
-24 -27 0
-24 -28 0
-24 -31 0
-24 -38 0
-24 -45 0
-25 -26 0
-25 -27 0
-25 -28 0
-25 -32 0
-25 -39 0
-25 -46 0
-26 -27 0
-26 -28 0
-26 -33 0
-27 -28 0
-27 -34 0
-27 -41 0
-27 -48 0
-28 -35 0
-28 -42 0
-28 -49 0
-29 -30 0
-29 -31 0
-29 -32 0
-29 -33 0
-29 -34 0
-29 -35 0
-29 -36 0
-29 -43 0
-30 -31 0
-30 -32 0
-30 -33 0
-30 -34 0
-30 -35 0
-30 -37 0
-30 -44 0
-31 -32 0
-31 -33 0
-31 -34 0
-31 -35 0
-31 -38 0
-31 -45 0
-32 -33 0
-32 -34 0
-32 -35 0
-32 -39 0
-32 -46 0
-33 -34 0
-33 -35 0
-34 -35 0
-34 -41 0
-34 -48 0
-35 -42 0
-35 -49 0
-36 -37 0
-36 -38 0
-36 -39 0
-36 -43 0
-37 -38 0
-37 -39 0
-37 -44 0
-38 -39 0
-38 -45 0
-39 -46 0
-41 -42 0
-41 -48 0
-42 -49 0
-43 -44 0
-43 -45 0
-43 -46 0
-43 -47 0
-43 -48 0
-43 -49 0
-44 -45 0
-44 -46 0
-44 -47 0
-44 -48 0
-44 -49 0
-45 -46 0
-45 -47 0
-45 -48 0
-45 -49 0
-46 -47 0
-46 -48 0
-46 -49 0
-47 -48 0
-47 -49 0
-48 -49 0
-10 -24 -16 -18 0
10 24 0
10 16 0
10 18 0
24 16 0
24 18 0
16 18 0
33 0
47 0
39 0
41 0
-17 0
-40 0